30
30
1
3
3600
513 605 615 810 931 1114 1390 1406 1460 1511 1515 1589 1639 1706 1757 1777 1821 1833 1871 1872 2089 2170 2258 2331 2499 2591 2600 2699 2948 2985 
40 36 31 6 14 38 19 33 26 32 39 22 28 39 9 13 21 32 16 38 39 21 30 5 10 13 39 27 10 17 
